TCS_Benchmarks/redos_fix/corpus1_output_distinct_990_989_8_0.txt
.*
(.*)(_\+?wg_.*_h)(.*)
.*